# Solution for model karate
# Objective value = 20
x#1 0
x#2 0
x#3 0
x#4 0
x#5 0
x#6 0
x#7 0
x#8 1
x#9 0
x#10 1
x#11 1
x#12 1
x#13 1
x#14 1
x#15 1
x#16 1
x#17 1
x#18 1
x#19 1
x#20 1
x#21 1
x#22 1
x#23 1
x#24 0
x#25 0
x#26 1
x#27 0
x#28 1
x#29 1
x#30 1
x#31 1
x#32 0
x#33 0
x#34 0
